p cnf 95 263
-27 -95 0
-27 -94 0
-23 -93 0
-23 -92 0
-22 91 0
-26 -91 0
-22 -90 0
-18 -89 0
-18 88 0
-24 -88 0
-17 -87 0
-17 86 0
-21 87 0
-21 -86 0
-25 -87 0
-25 -86 0
-17 -85 0
-13 -84 0
-13 -83 0
-13 82 0
-19 83 0
-19 -82 0
-25 -83 0
-25 -82 0
-12 81 0
-12 80 0
-16 -81 0
-16 80 0
-20 81 0
-20 -80 0
-24 -81 0
-24 -80 0
-12 -79 0
-8 -78 0
-8 77 0
-8 76 0
-14 -77 0
-14 76 0
-20 77 0
-20 -76 0
-26 -77 0
-26 -76 0
-7 -75 0
-7 -74 0
-7 73 0
-11 75 0
-11 74 0
-11 -73 0
-15 -75 0
-15 74 0
-15 -73 0
-19 75 0
-19 -74 0
-19 -73 0
-23 -75 0
-23 -74 0
-23 -73 0
-7 -72 0
-6 71 0
-6 70 0
-10 -71 0
-10 70 0
-14 71 0
-14 -70 0
-18 -71 0
-18 -70 0
-6 69 0
-12 -69 0
-5 -68 0
-5 67 0
-9 68 0
-9 -67 0
-13 -68 0
-13 -67 0
-5 -66 0
-5 65 0
-11 66 0
-11 -65 0
-17 -66 0
-17 -65 0
-4 64 0
-8 -64 0
-4 63 0
-4 62 0
-10 -63 0
-10 62 0
-16 63 0
-16 -62 0
-22 -63 0
-22 -62 0
-3 -61 0
-3 -60 0
-3 -59 0
-3 58 0
-9 60 0
-9 59 0
-9 -58 0
-15 -60 0
-15 59 0
-15 -58 0
-21 60 0
-21 -59 0
-21 -58 0
-27 -60 0
-27 -59 0
-27 -58 0
27 22 17 12 7 0
-7 -57 0
-7 -56 0
-7 55 0
-12 57 0
-12 56 0
-12 -55 0
-17 -57 0
-17 56 0
-17 -55 0
-22 57 0
-22 -56 0
-22 -55 0
-27 -57 0
-27 -56 0
-27 -55 0
26 21 16 11 6 0
-6 -54 0
-6 -53 0
-6 52 0
-11 54 0
-11 53 0
-11 -52 0
-16 -54 0
-16 53 0
-16 -52 0
-21 54 0
-21 -53 0
-21 -52 0
-26 -54 0
-26 -53 0
-26 -52 0
25 20 15 10 5 0
-5 -51 0
-5 -50 0
-5 49 0
-10 51 0
-10 50 0
-10 -49 0
-15 -51 0
-15 50 0
-15 -49 0
-20 51 0
-20 -50 0
-20 -49 0
-25 -51 0
-25 -50 0
-25 -49 0
24 19 14 9 4 0
-4 -48 0
-4 -47 0
-4 46 0
-9 48 0
-9 47 0
-9 -46 0
-14 -48 0
-14 47 0
-14 -46 0
-19 48 0
-19 -47 0
-19 -46 0
-24 -48 0
-24 -47 0
-24 -46 0
23 18 13 8 3 0
-3 -45 0
-3 -44 0
-3 43 0
-8 45 0
-8 44 0
-8 -43 0
-13 -45 0
-13 44 0
-13 -43 0
-18 45 0
-18 -44 0
-18 -43 0
-23 -45 0
-23 -44 0
-23 -43 0
-27 -42 0
-27 -41 0
-27 40 0
-26 42 0
-26 41 0
-26 -40 0
-25 -42 0
-25 41 0
-25 -40 0
-24 42 0
-24 -41 0
-24 -40 0
-23 -42 0
-23 -41 0
-23 -40 0
-22 -39 0
-22 -38 0
-22 37 0
-21 39 0
-21 38 0
-21 -37 0
-20 -39 0
-20 38 0
-20 -37 0
-19 39 0
-19 -38 0
-19 -37 0
-18 -39 0
-18 -38 0
-18 -37 0
-17 -36 0
-17 -35 0
-17 34 0
-16 36 0
-16 35 0
-16 -34 0
-15 -36 0
-15 35 0
-15 -34 0
-14 36 0
-14 -35 0
-14 -34 0
-13 -36 0
-13 -35 0
-13 -34 0
-12 -33 0
-12 -32 0
-12 31 0
-11 33 0
-11 32 0
-11 -31 0
-10 -33 0
-10 32 0
-10 -31 0
-9 33 0
-9 -32 0
-9 -31 0
-8 -33 0
-8 -32 0
-8 -31 0
-7 -30 0
-7 -29 0
-7 28 0
-6 30 0
-6 29 0
-6 -28 0
-5 -30 0
-5 29 0
-5 -28 0
-4 30 0
-4 -29 0
-4 -28 0
-3 -30 0
-3 -29 0
-3 -28 0
1 0
-2 0
